NAME          DCAP_2_3_3_200_SS156
ROWS
 N  OBJ
 L  CON1
 L  CON2
 L  CON3
 L  CON4
 L  CON5
 L  CON6
 L  CON7
 L  CON8
 L  CON9
 L  CON10
 L  CON11
 L  CON12
 E  CON13
 E  CON14
 E  CON15
 E  CON16
 E  CON17
 E  CON18
 E  CON19
 E  CON20
 E  CON21
COLUMNS
    x[1,1]    OBJ       6.180167      CON1      1.000000    
    x[1,1]    CON7      -1.000000     CON8      -1.000000   
    x[1,1]    CON9      -1.000000   
    x[1,2]    OBJ       6.563535      CON2      1.000000    
    x[1,2]    CON8      -1.000000     CON9      -1.000000   
    x[1,3]    OBJ       7.443064      CON3      1.000000    
    x[1,3]    CON9      -1.000000   
    x[2,1]    OBJ       6.732585      CON4      1.000000    
    x[2,1]    CON10     -1.000000     CON11     -1.000000   
    x[2,1]    CON12     -1.000000   
    x[2,2]    OBJ       5.039546      CON5      1.000000    
    x[2,2]    CON11     -1.000000     CON12     -1.000000   
    x[2,3]    OBJ       6.054841      CON6      1.000000    
    x[2,3]    CON12     -1.000000   
    MARKER    'MARKER'                'INTORG'
    u[1,1]    OBJ       48.076654     CON1      -1.000000   
    u[1,2]    OBJ       20.066487     CON2      -1.000000   
    u[1,3]    OBJ       32.230043     CON3      -1.000000   
    u[2,1]    OBJ       49.996186     CON4      -1.000000   
    u[2,2]    OBJ       49.466655     CON5      -1.000000   
    u[2,3]    OBJ       27.484319     CON6      -1.000000   
    y[1,1,1]  OBJ       9.050420      CON7      0.636733    
    y[1,1,1]  CON13     1.000000    
    y[1,1,2]  OBJ       8.586671      CON8      0.577501    
    y[1,1,2]  CON14     1.000000    
    y[1,1,3]  OBJ       6.533226      CON9      1.158430    
    y[1,1,3]  CON15     1.000000    
    y[1,2,1]  OBJ       6.285058      CON7      1.265754    
    y[1,2,1]  CON16     1.000000    
    y[1,2,2]  OBJ       5.508421      CON8      0.740539    
    y[1,2,2]  CON17     1.000000    
    y[1,2,3]  OBJ       6.070871      CON9      0.659241    
    y[1,2,3]  CON18     1.000000    
    y[1,3,1]  OBJ       6.956193      CON7      0.507144    
    y[1,3,1]  CON19     1.000000    
    y[1,3,2]  OBJ       7.380533      CON8      0.976301    
    y[1,3,2]  CON20     1.000000    
    y[1,3,3]  OBJ       5.369252      CON9      1.284619    
    y[1,3,3]  CON21     1.000000    
    y[2,1,1]  OBJ       5.370057      CON10     0.636733    
    y[2,1,1]  CON13     1.000000    
    y[2,1,2]  OBJ       5.023396      CON11     0.577501    
    y[2,1,2]  CON14     1.000000    
    y[2,1,3]  OBJ       6.762387      CON12     1.158430    
    y[2,1,3]  CON15     1.000000    
    y[2,2,1]  OBJ       7.367043      CON10     1.265754    
    y[2,2,1]  CON16     1.000000    
    y[2,2,2]  OBJ       7.583057      CON11     0.740539    
    y[2,2,2]  CON17     1.000000    
    y[2,2,3]  OBJ       8.883431      CON12     0.659241    
    y[2,2,3]  CON18     1.000000    
    y[2,3,1]  OBJ       7.847391      CON10     0.507144    
    y[2,3,1]  CON19     1.000000    
    y[2,3,2]  OBJ       7.147521      CON11     0.976301    
    y[2,3,2]  CON20     1.000000    
    y[2,3,3]  OBJ       6.424143      CON12     1.284619    
    y[2,3,3]  CON21     1.000000    
    z[1,1]    OBJ       666.142848    CON13     1.000000    
    z[1,2]    OBJ       668.149749    CON14     1.000000    
    z[1,3]    OBJ       997.271011    CON15     1.000000    
    z[2,1]    OBJ       885.261282    CON16     1.000000    
    z[2,2]    OBJ       847.037492    CON17     1.000000    
    z[2,3]    OBJ       536.244318    CON18     1.000000    
    z[3,1]    OBJ       886.792705    CON19     1.000000    
    z[3,2]    OBJ       678.024851    CON20     1.000000    
    z[3,3]    OBJ       885.470964    CON21     1.000000    
    MARKER    'MARKER'                 'INTEND'
RHS
    RHS       CON1      -0.000000     CON2      -0.000000   
    RHS       CON3      -0.000000     CON4      -0.000000   
    RHS       CON5      -0.000000     CON6      -0.000000   
    RHS       CON7      -0.000000     CON8      -0.000000   
    RHS       CON9      -0.000000     CON10     -0.000000   
    RHS       CON11     -0.000000     CON12     -0.000000   
    RHS       CON13     1.000000      CON14     1.000000    
    RHS       CON15     1.000000      CON16     1.000000    
    RHS       CON17     1.000000      CON18     1.000000    
    RHS       CON19     1.000000      CON20     1.000000    
    RHS       CON21     1.000000    
BOUNDS
 BV BOUND     u[1,1]  
 BV BOUND     u[1,2]  
 BV BOUND     u[1,3]  
 BV BOUND     u[2,1]  
 BV BOUND     u[2,2]  
 BV BOUND     u[2,3]  
 BV BOUND     y[1,1,1]
 BV BOUND     y[1,1,2]
 BV BOUND     y[1,1,3]
 BV BOUND     y[1,2,1]
 BV BOUND     y[1,2,2]
 BV BOUND     y[1,2,3]
 BV BOUND     y[1,3,1]
 BV BOUND     y[1,3,2]
 BV BOUND     y[1,3,3]
 BV BOUND     y[2,1,1]
 BV BOUND     y[2,1,2]
 BV BOUND     y[2,1,3]
 BV BOUND     y[2,2,1]
 BV BOUND     y[2,2,2]
 BV BOUND     y[2,2,3]
 BV BOUND     y[2,3,1]
 BV BOUND     y[2,3,2]
 BV BOUND     y[2,3,3]
 BV BOUND     z[1,1]  
 BV BOUND     z[1,2]  
 BV BOUND     z[1,3]  
 BV BOUND     z[2,1]  
 BV BOUND     z[2,2]  
 BV BOUND     z[2,3]  
 BV BOUND     z[3,1]  
 BV BOUND     z[3,2]  
 BV BOUND     z[3,3]  
ENDATA
